NAME : traveling-santa-2018-prime-paths.32206.tour
COMMENT : Length = 32206
COMMENT : Found by LKH [Keld Helsgaun] Sun Jun 12 19:59:22 2022
TYPE : TOUR
DIMENSION : 100
TOUR_SECTION
1
64
17
74
38
94
24
37
20
67
18
40
59
90
15
29
84
100
82
12
41
56
3
63
48
35
8
13
75
72
50
52
73
44
11
5
77
69
36
93
33
27
98
85
10
23
58
6
61
95
32
26
88
19
92
71
54
21
30
39
91
53
99
57
34
43
62
96
45
97
86
65
25
46
7
78
2
89
42
55
80
60
81
51
16
31
83
47
28
9
22
49
68
14
87
76
4
79
70
66
-1
EOF
